language Essence 1.3

letting class be function(1 --> 1, 2 --> 1, 3 --> 1, 4 --> 1, 5 --> 1, 6 --> 1, 7 --> 1, 8 --> 1, 9 --> 1)
letting deck_length be 23
letting deck_width be 45
letting length be function(1 --> 16, 2 --> 16, 3 --> 1, 4 --> 1, 5 --> 1, 6 --> 1, 7 --> 1, 8 --> 1, 9 --> 1)
letting n_classes be 1
letting n_containers be 9
letting separation be function()
letting width be function(1 --> 13, 2 --> 7, 3 --> 14, 4 --> 1, 5 --> 2, 6 --> 1, 7 --> 1, 8 --> 1, 9 --> 1)
